p cnf 615 2089
c p weight 246 -1 0
c p weight -246 1 0
c p weight 248 6.12323399573676603586882014729198302312846062338790031898128063403419218957424163818359375E-17 0
c p weight -248 1 0
c p weight 249 1 0
c p weight -249 1 0
c p weight 250 -1 0
c p weight -250 1 0
c p weight 252 -1 0
c p weight -252 1 0
c p weight 255 -1 0
c p weight -255 1 0
c p weight 258 -1 0
c p weight -258 1 0
c p weight 261 -1 0
c p weight -261 1 0
c p weight 264 -1 0
c p weight -264 1 0
c p weight 267 -1 0
c p weight -267 1 0
c p weight 270 -1 0
c p weight -270 1 0
c p weight 273 -1 0
c p weight -273 1 0
c p weight 276 -1 0
c p weight -276 1 0
c p weight 279 -1 0
c p weight -279 1 0
c p weight 282 -1 0
c p weight -282 1 0
c p weight 285 -1 0
c p weight -285 1 0
c p weight 288 -1 0
c p weight -288 1 0
c p weight 291 -1 0
c p weight -291 1 0
c p weight 294 -1 0
c p weight -294 1 0
c p weight 297 -1 0
c p weight -297 1 0
c p weight 300 -1 0
c p weight -300 1 0
c p weight 303 -1 0
c p weight -303 1 0
c p weight 306 -1 0
c p weight -306 1 0
c p weight 309 -1 0
c p weight -309 1 0
c p weight 312 -1 0
c p weight -312 1 0
c p weight 315 -1 0
c p weight -315 1 0
c p weight 318 -1 0
c p weight -318 1 0
c p weight 321 -1 0
c p weight -321 1 0
c p weight 324 -1 0
c p weight -324 1 0
c p weight 327 -1 0
c p weight -327 1 0
c p weight 330 -1 0
c p weight -330 1 0
c p weight 333 -1 0
c p weight -333 1 0
c p weight 336 -1 0
c p weight -336 1 0
c p weight 339 -1 0
c p weight -339 1 0
c p weight 342 -1 0
c p weight -342 1 0
c p weight 345 -1 0
c p weight -345 1 0
c p weight 348 -1 0
c p weight -348 1 0
c p weight 351 -1 0
c p weight -351 1 0
c p weight 354 -1 0
c p weight -354 1 0
c p weight 357 -1 0
c p weight -357 1 0
c p weight 360 -1 0
c p weight -360 1 0
c p weight 363 -1 0
c p weight -363 1 0
c p weight 366 -1 0
c p weight -366 1 0
c p weight 369 -1 0
c p weight -369 1 0
c p weight 372 -1 0
c p weight -372 1 0
c p weight 375 -1 0
c p weight -375 1 0
c p weight 378 -1 0
c p weight -378 1 0
c p weight 381 -1 0
c p weight -381 1 0
c p weight 384 -1 0
c p weight -384 1 0
c p weight 387 -1 0
c p weight -387 1 0
c p weight 390 -1 0
c p weight -390 1 0
c p weight 393 -1 0
c p weight -393 1 0
c p weight 396 -1 0
c p weight -396 1 0
c p weight 399 -1 0
c p weight -399 1 0
c p weight 402 -1 0
c p weight -402 1 0
c p weight 405 -1 0
c p weight -405 1 0
c p weight 408 -1 0
c p weight -408 1 0
c p weight 411 -1 0
c p weight -411 1 0
c p weight 414 -1 0
c p weight -414 1 0
c p weight 417 -1 0
c p weight -417 1 0
c p weight 420 -1 0
c p weight -420 1 0
c p weight 423 -1 0
c p weight -423 1 0
c p weight 426 -1 0
c p weight -426 1 0
c p weight 429 -1 0
c p weight -429 1 0
c p weight 432 -1 0
c p weight -432 1 0
c p weight 435 -1 0
c p weight -435 1 0
c p weight 438 -1 0
c p weight -438 1 0
c p weight 441 -1 0
c p weight -441 1 0
c p weight 444 -1 0
c p weight -444 1 0
c p weight 447 -1 0
c p weight -447 1 0
c p weight 450 -1 0
c p weight -450 1 0
c p weight 453 -1 0
c p weight -453 1 0
c p weight 456 -1 0
c p weight -456 1 0
c p weight 459 -1 0
c p weight -459 1 0
c p weight 462 -1 0
c p weight -462 1 0
c p weight 465 -1 0
c p weight -465 1 0
c p weight 468 -1 0
c p weight -468 1 0
c p weight 471 -1 0
c p weight -471 1 0
c p weight 474 -1 0
c p weight -474 1 0
c p weight 477 -1 0
c p weight -477 1 0
c p weight 480 -1 0
c p weight -480 1 0
c p weight 483 -1 0
c p weight -483 1 0
c p weight 486 -1 0
c p weight -486 1 0
c p weight 489 -1 0
c p weight -489 1 0
c p weight 492 -1 0
c p weight -492 1 0
c p weight 495 -1 0
c p weight -495 1 0
c p weight 498 -1 0
c p weight -498 1 0
c p weight 501 -1 0
c p weight -501 1 0
c p weight 504 -1 0
c p weight -504 1 0
c p weight 507 -1 0
c p weight -507 1 0
c p weight 510 -1 0
c p weight -510 1 0
c p weight 513 -1 0
c p weight -513 1 0
c p weight 516 -1 0
c p weight -516 1 0
c p weight 519 -1 0
c p weight -519 1 0
c p weight 522 -1 0
c p weight -522 1 0
c p weight 525 -1 0
c p weight -525 1 0
c p weight 528 -1 0
c p weight -528 1 0
c p weight 531 -1 0
c p weight -531 1 0
c p weight 534 -1 0
c p weight -534 1 0
c p weight 537 -1 0
c p weight -537 1 0
c p weight 540 -1 0
c p weight -540 1 0
c p weight 543 -1 0
c p weight -543 1 0
c p weight 546 -1 0
c p weight -546 1 0
c p weight 549 -1 0
c p weight -549 1 0
c p weight 552 -1 0
c p weight -552 1 0
c p weight 555 -1 0
c p weight -555 1 0
c p weight 558 -1 0
c p weight -558 1 0
c p weight 561 -1 0
c p weight -561 1 0
c p weight 564 -1 0
c p weight -564 1 0
c p weight 567 -1 0
c p weight -567 1 0
c p weight 570 -1 0
c p weight -570 1 0
c p weight 573 -1 0
c p weight -573 1 0
c p weight 576 -1 0
c p weight -576 1 0
c p weight 579 -1 0
c p weight -579 1 0
c p weight 582 -1 0
c p weight -582 1 0
c p weight 585 -1 0
c p weight -585 1 0
c p weight 588 -1 0
c p weight -588 1 0
c p weight 591 -1 0
c p weight -591 1 0
c p weight 594 -1 0
c p weight -594 1 0
c p weight 597 -1 0
c p weight -597 1 0
c p weight 600 -1 0
c p weight -600 1 0
c p weight 603 -1 0
c p weight -603 1 0
c p weight 606 -1 0
c p weight -606 1 0
c p weight 609 -1 0
c p weight -609 1 0
c p weight 612 -1 0
c p weight -612 1 0
c p weight 615 -1 0
c p weight -615 1 0
-243 0
-241 0
-239 0
-237 0
-235 0
-233 0
-231 0
-229 0
-227 0
-225 0
-223 0
-221 0
-219 0
-217 0
-215 0
-213 0
-211 0
-209 0
-207 0
-205 0
-203 0
-201 0
-199 0
-197 0
-195 0
-193 0
-191 0
-189 0
-187 0
-185 0
-183 0
-181 0
-179 0
-177 0
-175 0
-173 0
-171 0
-169 0
-167 0
-165 0
-163 0
-161 0
-159 0
-157 0
-155 0
-153 0
-151 0
-149 0
-147 0
-145 0
-143 0
-141 0
-139 0
-137 0
-135 0
-133 0
-131 0
-129 0
-127 0
-125 0
-123 0
-121 0
-119 0
-117 0
-115 0
-113 0
-111 0
-109 0
-107 0
-105 0
-103 0
-101 0
-99 0
-97 0
-95 0
-93 0
-91 0
-89 0
-87 0
-85 0
-83 0
-81 0
-79 0
-77 0
-75 0
-73 0
-71 0
-69 0
-67 0
-65 0
-63 0
-61 0
-59 0
-57 0
-55 0
-53 0
-51 0
-49 0
-47 0
-45 0
-43 0
-41 0
-39 0
-37 0
-35 0
-33 0
-31 0
-29 0
-27 0
-25 0
-23 0
-21 0
-19 0
-17 0
-15 0
-13 0
-11 0
-9 0
-7 0
-5 0
-3 0
-1 0
245 243 -244 0
245 -243 244 0
-245 243 244 0
-245 -243 -244 0
-246 243 0
-246 244 0
246 -243 -244 0
247 -243 245 0
-247 243 245 0
-248 245 0
247 -248 -243 0
-247 -248 243 0
247 248 243 -245 0
-247 248 -243 -245 0
-249 245 0
247 -249 243 0
-247 -249 -243 0
247 249 -243 -245 0
-247 249 243 -245 0
-250 247 0
-250 245 0
-250 -243 0
250 -247 243 -245 0
251 247 -245 0
251 -247 245 0
-251 247 245 0
-251 -247 -245 0
-252 247 0
-252 245 0
252 -247 -245 0
253 247 -241 0
253 -247 241 0
-253 247 241 0
-253 -247 -241 0
254 251 -242 0
254 -251 242 0
-254 251 242 0
-254 -251 -242 0
-255 247 0
-255 242 0
-255 241 -251 0
-255 -241 251 0
255 -247 241 251 -242 0
255 -247 -241 -251 -242 0
256 253 -239 0
256 -253 239 0
-256 253 239 0
-256 -253 -239 0
257 242 -240 0
257 -242 240 0
-257 242 240 0
-257 -242 -240 0
-258 253 0
-258 240 0
-258 239 -242 0
-258 -239 242 0
258 -253 239 242 -240 0
258 -253 -239 -242 -240 0
259 256 -237 0
259 -256 237 0
-259 256 237 0
-259 -256 -237 0
260 240 -238 0
260 -240 238 0
-260 240 238 0
-260 -240 -238 0
-261 256 0
-261 238 0
-261 237 -240 0
-261 -237 240 0
261 -256 237 240 -238 0
261 -256 -237 -240 -238 0
262 259 -235 0
262 -259 235 0
-262 259 235 0
-262 -259 -235 0
263 238 -236 0
263 -238 236 0
-263 238 236 0
-263 -238 -236 0
-264 259 0
-264 236 0
-264 235 -238 0
-264 -235 238 0
264 -259 235 238 -236 0
264 -259 -235 -238 -236 0
265 262 -233 0
265 -262 233 0
-265 262 233 0
-265 -262 -233 0
266 236 -234 0
266 -236 234 0
-266 236 234 0
-266 -236 -234 0
-267 262 0
-267 234 0
-267 233 -236 0
-267 -233 236 0
267 -262 233 236 -234 0
267 -262 -233 -236 -234 0
268 265 -231 0
268 -265 231 0
-268 265 231 0
-268 -265 -231 0
269 234 -232 0
269 -234 232 0
-269 234 232 0
-269 -234 -232 0
-270 265 0
-270 232 0
-270 231 -234 0
-270 -231 234 0
270 -265 231 234 -232 0
270 -265 -231 -234 -232 0
271 268 -229 0
271 -268 229 0
-271 268 229 0
-271 -268 -229 0
272 232 -230 0
272 -232 230 0
-272 232 230 0
-272 -232 -230 0
-273 268 0
-273 230 0
-273 229 -232 0
-273 -229 232 0
273 -268 229 232 -230 0
273 -268 -229 -232 -230 0
274 271 -227 0
274 -271 227 0
-274 271 227 0
-274 -271 -227 0
275 230 -228 0
275 -230 228 0
-275 230 228 0
-275 -230 -228 0
-276 271 0
-276 228 0
-276 227 -230 0
-276 -227 230 0
276 -271 227 230 -228 0
276 -271 -227 -230 -228 0
277 274 -225 0
277 -274 225 0
-277 274 225 0
-277 -274 -225 0
278 228 -226 0
278 -228 226 0
-278 228 226 0
-278 -228 -226 0
-279 274 0
-279 226 0
-279 225 -228 0
-279 -225 228 0
279 -274 225 228 -226 0
279 -274 -225 -228 -226 0
280 277 -223 0
280 -277 223 0
-280 277 223 0
-280 -277 -223 0
281 226 -224 0
281 -226 224 0
-281 226 224 0
-281 -226 -224 0
-282 277 0
-282 224 0
-282 223 -226 0
-282 -223 226 0
282 -277 223 226 -224 0
282 -277 -223 -226 -224 0
283 280 -221 0
283 -280 221 0
-283 280 221 0
-283 -280 -221 0
284 224 -222 0
284 -224 222 0
-284 224 222 0
-284 -224 -222 0
-285 280 0
-285 222 0
-285 221 -224 0
-285 -221 224 0
285 -280 221 224 -222 0
285 -280 -221 -224 -222 0
286 283 -219 0
286 -283 219 0
-286 283 219 0
-286 -283 -219 0
287 222 -220 0
287 -222 220 0
-287 222 220 0
-287 -222 -220 0
-288 283 0
-288 220 0
-288 219 -222 0
-288 -219 222 0
288 -283 219 222 -220 0
288 -283 -219 -222 -220 0
289 286 -217 0
289 -286 217 0
-289 286 217 0
-289 -286 -217 0
290 220 -218 0
290 -220 218 0
-290 220 218 0
-290 -220 -218 0
-291 286 0
-291 218 0
-291 217 -220 0
-291 -217 220 0
291 -286 217 220 -218 0
291 -286 -217 -220 -218 0
292 289 -215 0
292 -289 215 0
-292 289 215 0
-292 -289 -215 0
293 218 -216 0
293 -218 216 0
-293 218 216 0
-293 -218 -216 0
-294 289 0
-294 216 0
-294 215 -218 0
-294 -215 218 0
294 -289 215 218 -216 0
294 -289 -215 -218 -216 0
295 292 -213 0
295 -292 213 0
-295 292 213 0
-295 -292 -213 0
296 216 -214 0
296 -216 214 0
-296 216 214 0
-296 -216 -214 0
-297 292 0
-297 214 0
-297 213 -216 0
-297 -213 216 0
297 -292 213 216 -214 0
297 -292 -213 -216 -214 0
298 295 -211 0
298 -295 211 0
-298 295 211 0
-298 -295 -211 0
299 214 -212 0
299 -214 212 0
-299 214 212 0
-299 -214 -212 0
-300 295 0
-300 212 0
-300 211 -214 0
-300 -211 214 0
300 -295 211 214 -212 0
300 -295 -211 -214 -212 0
301 298 -209 0
301 -298 209 0
-301 298 209 0
-301 -298 -209 0
302 212 -210 0
302 -212 210 0
-302 212 210 0
-302 -212 -210 0
-303 298 0
-303 210 0
-303 209 -212 0
-303 -209 212 0
303 -298 209 212 -210 0
303 -298 -209 -212 -210 0
304 301 -207 0
304 -301 207 0
-304 301 207 0
-304 -301 -207 0
305 210 -208 0
305 -210 208 0
-305 210 208 0
-305 -210 -208 0
-306 301 0
-306 208 0
-306 207 -210 0
-306 -207 210 0
306 -301 207 210 -208 0
306 -301 -207 -210 -208 0
307 304 -205 0
307 -304 205 0
-307 304 205 0
-307 -304 -205 0
308 208 -206 0
308 -208 206 0
-308 208 206 0
-308 -208 -206 0
-309 304 0
-309 206 0
-309 205 -208 0
-309 -205 208 0
309 -304 205 208 -206 0
309 -304 -205 -208 -206 0
310 307 -203 0
310 -307 203 0
-310 307 203 0
-310 -307 -203 0
311 206 -204 0
311 -206 204 0
-311 206 204 0
-311 -206 -204 0
-312 307 0
-312 204 0
-312 203 -206 0
-312 -203 206 0
312 -307 203 206 -204 0
312 -307 -203 -206 -204 0
313 310 -201 0
313 -310 201 0
-313 310 201 0
-313 -310 -201 0
314 204 -202 0
314 -204 202 0
-314 204 202 0
-314 -204 -202 0
-315 310 0
-315 202 0
-315 201 -204 0
-315 -201 204 0
315 -310 201 204 -202 0
315 -310 -201 -204 -202 0
316 313 -199 0
316 -313 199 0
-316 313 199 0
-316 -313 -199 0
317 202 -200 0
317 -202 200 0
-317 202 200 0
-317 -202 -200 0
-318 313 0
-318 200 0
-318 199 -202 0
-318 -199 202 0
318 -313 199 202 -200 0
318 -313 -199 -202 -200 0
319 316 -197 0
319 -316 197 0
-319 316 197 0
-319 -316 -197 0
320 200 -198 0
320 -200 198 0
-320 200 198 0
-320 -200 -198 0
-321 316 0
-321 198 0
-321 197 -200 0
-321 -197 200 0
321 -316 197 200 -198 0
321 -316 -197 -200 -198 0
322 319 -195 0
322 -319 195 0
-322 319 195 0
-322 -319 -195 0
323 198 -196 0
323 -198 196 0
-323 198 196 0
-323 -198 -196 0
-324 319 0
-324 196 0
-324 195 -198 0
-324 -195 198 0
324 -319 195 198 -196 0
324 -319 -195 -198 -196 0
325 322 -193 0
325 -322 193 0
-325 322 193 0
-325 -322 -193 0
326 196 -194 0
326 -196 194 0
-326 196 194 0
-326 -196 -194 0
-327 322 0
-327 194 0
-327 193 -196 0
-327 -193 196 0
327 -322 193 196 -194 0
327 -322 -193 -196 -194 0
328 325 -191 0
328 -325 191 0
-328 325 191 0
-328 -325 -191 0
329 194 -192 0
329 -194 192 0
-329 194 192 0
-329 -194 -192 0
-330 325 0
-330 192 0
-330 191 -194 0
-330 -191 194 0
330 -325 191 194 -192 0
330 -325 -191 -194 -192 0
331 328 -189 0
331 -328 189 0
-331 328 189 0
-331 -328 -189 0
332 192 -190 0
332 -192 190 0
-332 192 190 0
-332 -192 -190 0
-333 328 0
-333 190 0
-333 189 -192 0
-333 -189 192 0
333 -328 189 192 -190 0
333 -328 -189 -192 -190 0
334 331 -187 0
334 -331 187 0
-334 331 187 0
-334 -331 -187 0
335 190 -188 0
335 -190 188 0
-335 190 188 0
-335 -190 -188 0
-336 331 0
-336 188 0
-336 187 -190 0
-336 -187 190 0
336 -331 187 190 -188 0
336 -331 -187 -190 -188 0
337 334 -185 0
337 -334 185 0
-337 334 185 0
-337 -334 -185 0
338 188 -186 0
338 -188 186 0
-338 188 186 0
-338 -188 -186 0
-339 334 0
-339 186 0
-339 185 -188 0
-339 -185 188 0
339 -334 185 188 -186 0
339 -334 -185 -188 -186 0
340 337 -183 0
340 -337 183 0
-340 337 183 0
-340 -337 -183 0
341 186 -184 0
341 -186 184 0
-341 186 184 0
-341 -186 -184 0
-342 337 0
-342 184 0
-342 183 -186 0
-342 -183 186 0
342 -337 183 186 -184 0
342 -337 -183 -186 -184 0
343 340 -181 0
343 -340 181 0
-343 340 181 0
-343 -340 -181 0
344 184 -182 0
344 -184 182 0
-344 184 182 0
-344 -184 -182 0
-345 340 0
-345 182 0
-345 181 -184 0
-345 -181 184 0
345 -340 181 184 -182 0
345 -340 -181 -184 -182 0
346 343 -179 0
346 -343 179 0
-346 343 179 0
-346 -343 -179 0
347 182 -180 0
347 -182 180 0
-347 182 180 0
-347 -182 -180 0
-348 343 0
-348 180 0
-348 179 -182 0
-348 -179 182 0
348 -343 179 182 -180 0
348 -343 -179 -182 -180 0
349 346 -177 0
349 -346 177 0
-349 346 177 0
-349 -346 -177 0
350 180 -178 0
350 -180 178 0
-350 180 178 0
-350 -180 -178 0
-351 346 0
-351 178 0
-351 177 -180 0
-351 -177 180 0
351 -346 177 180 -178 0
351 -346 -177 -180 -178 0
352 349 -175 0
352 -349 175 0
-352 349 175 0
-352 -349 -175 0
353 178 -176 0
353 -178 176 0
-353 178 176 0
-353 -178 -176 0
-354 349 0
-354 176 0
-354 175 -178 0
-354 -175 178 0
354 -349 175 178 -176 0
354 -349 -175 -178 -176 0
355 352 -173 0
355 -352 173 0
-355 352 173 0
-355 -352 -173 0
356 176 -174 0
356 -176 174 0
-356 176 174 0
-356 -176 -174 0
-357 352 0
-357 174 0
-357 173 -176 0
-357 -173 176 0
357 -352 173 176 -174 0
357 -352 -173 -176 -174 0
358 355 -171 0
358 -355 171 0
-358 355 171 0
-358 -355 -171 0
359 174 -172 0
359 -174 172 0
-359 174 172 0
-359 -174 -172 0
-360 355 0
-360 172 0
-360 171 -174 0
-360 -171 174 0
360 -355 171 174 -172 0
360 -355 -171 -174 -172 0
361 358 -169 0
361 -358 169 0
-361 358 169 0
-361 -358 -169 0
362 172 -170 0
362 -172 170 0
-362 172 170 0
-362 -172 -170 0
-363 358 0
-363 170 0
-363 169 -172 0
-363 -169 172 0
363 -358 169 172 -170 0
363 -358 -169 -172 -170 0
364 361 -167 0
364 -361 167 0
-364 361 167 0
-364 -361 -167 0
365 170 -168 0
365 -170 168 0
-365 170 168 0
-365 -170 -168 0
-366 361 0
-366 168 0
-366 167 -170 0
-366 -167 170 0
366 -361 167 170 -168 0
366 -361 -167 -170 -168 0
367 364 -165 0
367 -364 165 0
-367 364 165 0
-367 -364 -165 0
368 168 -166 0
368 -168 166 0
-368 168 166 0
-368 -168 -166 0
-369 364 0
-369 166 0
-369 165 -168 0
-369 -165 168 0
369 -364 165 168 -166 0
369 -364 -165 -168 -166 0
370 367 -163 0
370 -367 163 0
-370 367 163 0
-370 -367 -163 0
371 166 -164 0
371 -166 164 0
-371 166 164 0
-371 -166 -164 0
-372 367 0
-372 164 0
-372 163 -166 0
-372 -163 166 0
372 -367 163 166 -164 0
372 -367 -163 -166 -164 0
373 370 -161 0
373 -370 161 0
-373 370 161 0
-373 -370 -161 0
374 164 -162 0
374 -164 162 0
-374 164 162 0
-374 -164 -162 0
-375 370 0
-375 162 0
-375 161 -164 0
-375 -161 164 0
375 -370 161 164 -162 0
375 -370 -161 -164 -162 0
376 373 -159 0
376 -373 159 0
-376 373 159 0
-376 -373 -159 0
377 162 -160 0
377 -162 160 0
-377 162 160 0
-377 -162 -160 0
-378 373 0
-378 160 0
-378 159 -162 0
-378 -159 162 0
378 -373 159 162 -160 0
378 -373 -159 -162 -160 0
379 376 -157 0
379 -376 157 0
-379 376 157 0
-379 -376 -157 0
380 160 -158 0
380 -160 158 0
-380 160 158 0
-380 -160 -158 0
-381 376 0
-381 158 0
-381 157 -160 0
-381 -157 160 0
381 -376 157 160 -158 0
381 -376 -157 -160 -158 0
382 379 -155 0
382 -379 155 0
-382 379 155 0
-382 -379 -155 0
383 158 -156 0
383 -158 156 0
-383 158 156 0
-383 -158 -156 0
-384 379 0
-384 156 0
-384 155 -158 0
-384 -155 158 0
384 -379 155 158 -156 0
384 -379 -155 -158 -156 0
385 382 -153 0
385 -382 153 0
-385 382 153 0
-385 -382 -153 0
386 156 -154 0
386 -156 154 0
-386 156 154 0
-386 -156 -154 0
-387 382 0
-387 154 0
-387 153 -156 0
-387 -153 156 0
387 -382 153 156 -154 0
387 -382 -153 -156 -154 0
388 385 -151 0
388 -385 151 0
-388 385 151 0
-388 -385 -151 0
389 154 -152 0
389 -154 152 0
-389 154 152 0
-389 -154 -152 0
-390 385 0
-390 152 0
-390 151 -154 0
-390 -151 154 0
390 -385 151 154 -152 0
390 -385 -151 -154 -152 0
391 388 -149 0
391 -388 149 0
-391 388 149 0
-391 -388 -149 0
392 152 -150 0
392 -152 150 0
-392 152 150 0
-392 -152 -150 0
-393 388 0
-393 150 0
-393 149 -152 0
-393 -149 152 0
393 -388 149 152 -150 0
393 -388 -149 -152 -150 0
394 391 -147 0
394 -391 147 0
-394 391 147 0
-394 -391 -147 0
395 150 -148 0
395 -150 148 0
-395 150 148 0
-395 -150 -148 0
-396 391 0
-396 148 0
-396 147 -150 0
-396 -147 150 0
396 -391 147 150 -148 0
396 -391 -147 -150 -148 0
397 394 -145 0
397 -394 145 0
-397 394 145 0
-397 -394 -145 0
398 148 -146 0
398 -148 146 0
-398 148 146 0
-398 -148 -146 0
-399 394 0
-399 146 0
-399 145 -148 0
-399 -145 148 0
399 -394 145 148 -146 0
399 -394 -145 -148 -146 0
400 397 -143 0
400 -397 143 0
-400 397 143 0
-400 -397 -143 0
401 146 -144 0
401 -146 144 0
-401 146 144 0
-401 -146 -144 0
-402 397 0
-402 144 0
-402 143 -146 0
-402 -143 146 0
402 -397 143 146 -144 0
402 -397 -143 -146 -144 0
403 400 -141 0
403 -400 141 0
-403 400 141 0
-403 -400 -141 0
404 144 -142 0
404 -144 142 0
-404 144 142 0
-404 -144 -142 0
-405 400 0
-405 142 0
-405 141 -144 0
-405 -141 144 0
405 -400 141 144 -142 0
405 -400 -141 -144 -142 0
406 403 -139 0
406 -403 139 0
-406 403 139 0
-406 -403 -139 0
407 142 -140 0
407 -142 140 0
-407 142 140 0
-407 -142 -140 0
-408 403 0
-408 140 0
-408 139 -142 0
-408 -139 142 0
408 -403 139 142 -140 0
408 -403 -139 -142 -140 0
409 406 -137 0
409 -406 137 0
-409 406 137 0
-409 -406 -137 0
410 140 -138 0
410 -140 138 0
-410 140 138 0
-410 -140 -138 0
-411 406 0
-411 138 0
-411 137 -140 0
-411 -137 140 0
411 -406 137 140 -138 0
411 -406 -137 -140 -138 0
412 409 -135 0
412 -409 135 0
-412 409 135 0
-412 -409 -135 0
413 138 -136 0
413 -138 136 0
-413 138 136 0
-413 -138 -136 0
-414 409 0
-414 136 0
-414 135 -138 0
-414 -135 138 0
414 -409 135 138 -136 0
414 -409 -135 -138 -136 0
415 412 -133 0
415 -412 133 0
-415 412 133 0
-415 -412 -133 0
416 136 -134 0
416 -136 134 0
-416 136 134 0
-416 -136 -134 0
-417 412 0
-417 134 0
-417 133 -136 0
-417 -133 136 0
417 -412 133 136 -134 0
417 -412 -133 -136 -134 0
418 415 -131 0
418 -415 131 0
-418 415 131 0
-418 -415 -131 0
419 134 -132 0
419 -134 132 0
-419 134 132 0
-419 -134 -132 0
-420 415 0
-420 132 0
-420 131 -134 0
-420 -131 134 0
420 -415 131 134 -132 0
420 -415 -131 -134 -132 0
421 418 -129 0
421 -418 129 0
-421 418 129 0
-421 -418 -129 0
422 132 -130 0
422 -132 130 0
-422 132 130 0
-422 -132 -130 0
-423 418 0
-423 130 0
-423 129 -132 0
-423 -129 132 0
423 -418 129 132 -130 0
423 -418 -129 -132 -130 0
424 421 -127 0
424 -421 127 0
-424 421 127 0
-424 -421 -127 0
425 130 -128 0
425 -130 128 0
-425 130 128 0
-425 -130 -128 0
-426 421 0
-426 128 0
-426 127 -130 0
-426 -127 130 0
426 -421 127 130 -128 0
426 -421 -127 -130 -128 0
427 424 -125 0
427 -424 125 0
-427 424 125 0
-427 -424 -125 0
428 128 -126 0
428 -128 126 0
-428 128 126 0
-428 -128 -126 0
-429 424 0
-429 126 0
-429 125 -128 0
-429 -125 128 0
429 -424 125 128 -126 0
429 -424 -125 -128 -126 0
430 427 -123 0
430 -427 123 0
-430 427 123 0
-430 -427 -123 0
431 126 -124 0
431 -126 124 0
-431 126 124 0
-431 -126 -124 0
-432 427 0
-432 124 0
-432 123 -126 0
-432 -123 126 0
432 -427 123 126 -124 0
432 -427 -123 -126 -124 0
433 430 -121 0
433 -430 121 0
-433 430 121 0
-433 -430 -121 0
434 124 -122 0
434 -124 122 0
-434 124 122 0
-434 -124 -122 0
-435 430 0
-435 122 0
-435 121 -124 0
-435 -121 124 0
435 -430 121 124 -122 0
435 -430 -121 -124 -122 0
436 433 -119 0
436 -433 119 0
-436 433 119 0
-436 -433 -119 0
437 122 -120 0
437 -122 120 0
-437 122 120 0
-437 -122 -120 0
-438 433 0
-438 120 0
-438 119 -122 0
-438 -119 122 0
438 -433 119 122 -120 0
438 -433 -119 -122 -120 0
439 436 -117 0
439 -436 117 0
-439 436 117 0
-439 -436 -117 0
440 120 -118 0
440 -120 118 0
-440 120 118 0
-440 -120 -118 0
-441 436 0
-441 118 0
-441 117 -120 0
-441 -117 120 0
441 -436 117 120 -118 0
441 -436 -117 -120 -118 0
442 439 -115 0
442 -439 115 0
-442 439 115 0
-442 -439 -115 0
443 118 -116 0
443 -118 116 0
-443 118 116 0
-443 -118 -116 0
-444 439 0
-444 116 0
-444 115 -118 0
-444 -115 118 0
444 -439 115 118 -116 0
444 -439 -115 -118 -116 0
445 442 -113 0
445 -442 113 0
-445 442 113 0
-445 -442 -113 0
446 116 -114 0
446 -116 114 0
-446 116 114 0
-446 -116 -114 0
-447 442 0
-447 114 0
-447 113 -116 0
-447 -113 116 0
447 -442 113 116 -114 0
447 -442 -113 -116 -114 0
448 445 -111 0
448 -445 111 0
-448 445 111 0
-448 -445 -111 0
449 114 -112 0
449 -114 112 0
-449 114 112 0
-449 -114 -112 0
-450 445 0
-450 112 0
-450 111 -114 0
-450 -111 114 0
450 -445 111 114 -112 0
450 -445 -111 -114 -112 0
451 448 -109 0
451 -448 109 0
-451 448 109 0
-451 -448 -109 0
452 112 -110 0
452 -112 110 0
-452 112 110 0
-452 -112 -110 0
-453 448 0
-453 110 0
-453 109 -112 0
-453 -109 112 0
453 -448 109 112 -110 0
453 -448 -109 -112 -110 0
454 451 -107 0
454 -451 107 0
-454 451 107 0
-454 -451 -107 0
455 110 -108 0
455 -110 108 0
-455 110 108 0
-455 -110 -108 0
-456 451 0
-456 108 0
-456 107 -110 0
-456 -107 110 0
456 -451 107 110 -108 0
456 -451 -107 -110 -108 0
457 454 -105 0
457 -454 105 0
-457 454 105 0
-457 -454 -105 0
458 108 -106 0
458 -108 106 0
-458 108 106 0
-458 -108 -106 0
-459 454 0
-459 106 0
-459 105 -108 0
-459 -105 108 0
459 -454 105 108 -106 0
459 -454 -105 -108 -106 0
460 457 -103 0
460 -457 103 0
-460 457 103 0
-460 -457 -103 0
461 106 -104 0
461 -106 104 0
-461 106 104 0
-461 -106 -104 0
-462 457 0
-462 104 0
-462 103 -106 0
-462 -103 106 0
462 -457 103 106 -104 0
462 -457 -103 -106 -104 0
463 460 -101 0
463 -460 101 0
-463 460 101 0
-463 -460 -101 0
464 104 -102 0
464 -104 102 0
-464 104 102 0
-464 -104 -102 0
-465 460 0
-465 102 0
-465 101 -104 0
-465 -101 104 0
465 -460 101 104 -102 0
465 -460 -101 -104 -102 0
466 463 -99 0
466 -463 99 0
-466 463 99 0
-466 -463 -99 0
467 102 -100 0
467 -102 100 0
-467 102 100 0
-467 -102 -100 0
-468 463 0
-468 100 0
-468 99 -102 0
-468 -99 102 0
468 -463 99 102 -100 0
468 -463 -99 -102 -100 0
469 466 -97 0
469 -466 97 0
-469 466 97 0
-469 -466 -97 0
470 100 -98 0
470 -100 98 0
-470 100 98 0
-470 -100 -98 0
-471 466 0
-471 98 0
-471 97 -100 0
-471 -97 100 0
471 -466 97 100 -98 0
471 -466 -97 -100 -98 0
472 469 -95 0
472 -469 95 0
-472 469 95 0
-472 -469 -95 0
473 98 -96 0
473 -98 96 0
-473 98 96 0
-473 -98 -96 0
-474 469 0
-474 96 0
-474 95 -98 0
-474 -95 98 0
474 -469 95 98 -96 0
474 -469 -95 -98 -96 0
475 472 -93 0
475 -472 93 0
-475 472 93 0
-475 -472 -93 0
476 96 -94 0
476 -96 94 0
-476 96 94 0
-476 -96 -94 0
-477 472 0
-477 94 0
-477 93 -96 0
-477 -93 96 0
477 -472 93 96 -94 0
477 -472 -93 -96 -94 0
478 475 -91 0
478 -475 91 0
-478 475 91 0
-478 -475 -91 0
479 94 -92 0
479 -94 92 0
-479 94 92 0
-479 -94 -92 0
-480 475 0
-480 92 0
-480 91 -94 0
-480 -91 94 0
480 -475 91 94 -92 0
480 -475 -91 -94 -92 0
481 478 -89 0
481 -478 89 0
-481 478 89 0
-481 -478 -89 0
482 92 -90 0
482 -92 90 0
-482 92 90 0
-482 -92 -90 0
-483 478 0
-483 90 0
-483 89 -92 0
-483 -89 92 0
483 -478 89 92 -90 0
483 -478 -89 -92 -90 0
484 481 -87 0
484 -481 87 0
-484 481 87 0
-484 -481 -87 0
485 90 -88 0
485 -90 88 0
-485 90 88 0
-485 -90 -88 0
-486 481 0
-486 88 0
-486 87 -90 0
-486 -87 90 0
486 -481 87 90 -88 0
486 -481 -87 -90 -88 0
487 484 -85 0
487 -484 85 0
-487 484 85 0
-487 -484 -85 0
488 88 -86 0
488 -88 86 0
-488 88 86 0
-488 -88 -86 0
-489 484 0
-489 86 0
-489 85 -88 0
-489 -85 88 0
489 -484 85 88 -86 0
489 -484 -85 -88 -86 0
490 487 -83 0
490 -487 83 0
-490 487 83 0
-490 -487 -83 0
491 86 -84 0
491 -86 84 0
-491 86 84 0
-491 -86 -84 0
-492 487 0
-492 84 0
-492 83 -86 0
-492 -83 86 0
492 -487 83 86 -84 0
492 -487 -83 -86 -84 0
493 490 -81 0
493 -490 81 0
-493 490 81 0
-493 -490 -81 0
494 84 -82 0
494 -84 82 0
-494 84 82 0
-494 -84 -82 0
-495 490 0
-495 82 0
-495 81 -84 0
-495 -81 84 0
495 -490 81 84 -82 0
495 -490 -81 -84 -82 0
496 493 -79 0
496 -493 79 0
-496 493 79 0
-496 -493 -79 0
497 82 -80 0
497 -82 80 0
-497 82 80 0
-497 -82 -80 0
-498 493 0
-498 80 0
-498 79 -82 0
-498 -79 82 0
498 -493 79 82 -80 0
498 -493 -79 -82 -80 0
499 496 -77 0
499 -496 77 0
-499 496 77 0
-499 -496 -77 0
500 80 -78 0
500 -80 78 0
-500 80 78 0
-500 -80 -78 0
-501 496 0
-501 78 0
-501 77 -80 0
-501 -77 80 0
501 -496 77 80 -78 0
501 -496 -77 -80 -78 0
502 499 -75 0
502 -499 75 0
-502 499 75 0
-502 -499 -75 0
503 78 -76 0
503 -78 76 0
-503 78 76 0
-503 -78 -76 0
-504 499 0
-504 76 0
-504 75 -78 0
-504 -75 78 0
504 -499 75 78 -76 0
504 -499 -75 -78 -76 0
505 502 -73 0
505 -502 73 0
-505 502 73 0
-505 -502 -73 0
506 76 -74 0
506 -76 74 0
-506 76 74 0
-506 -76 -74 0
-507 502 0
-507 74 0
-507 73 -76 0
-507 -73 76 0
507 -502 73 76 -74 0
507 -502 -73 -76 -74 0
508 505 -71 0
508 -505 71 0
-508 505 71 0
-508 -505 -71 0
509 74 -72 0
509 -74 72 0
-509 74 72 0
-509 -74 -72 0
-510 505 0
-510 72 0
-510 71 -74 0
-510 -71 74 0
510 -505 71 74 -72 0
510 -505 -71 -74 -72 0
511 508 -69 0
511 -508 69 0
-511 508 69 0
-511 -508 -69 0
512 72 -70 0
512 -72 70 0
-512 72 70 0
-512 -72 -70 0
-513 508 0
-513 70 0
-513 69 -72 0
-513 -69 72 0
513 -508 69 72 -70 0
513 -508 -69 -72 -70 0
514 511 -67 0
514 -511 67 0
-514 511 67 0
-514 -511 -67 0
515 70 -68 0
515 -70 68 0
-515 70 68 0
-515 -70 -68 0
-516 511 0
-516 68 0
-516 67 -70 0
-516 -67 70 0
516 -511 67 70 -68 0
516 -511 -67 -70 -68 0
517 514 -65 0
517 -514 65 0
-517 514 65 0
-517 -514 -65 0
518 68 -66 0
518 -68 66 0
-518 68 66 0
-518 -68 -66 0
-519 514 0
-519 66 0
-519 65 -68 0
-519 -65 68 0
519 -514 65 68 -66 0
519 -514 -65 -68 -66 0
520 517 -63 0
520 -517 63 0
-520 517 63 0
-520 -517 -63 0
521 66 -64 0
521 -66 64 0
-521 66 64 0
-521 -66 -64 0
-522 517 0
-522 64 0
-522 63 -66 0
-522 -63 66 0
522 -517 63 66 -64 0
522 -517 -63 -66 -64 0
523 520 -61 0
523 -520 61 0
-523 520 61 0
-523 -520 -61 0
524 64 -62 0
524 -64 62 0
-524 64 62 0
-524 -64 -62 0
-525 520 0
-525 62 0
-525 61 -64 0
-525 -61 64 0
525 -520 61 64 -62 0
525 -520 -61 -64 -62 0
526 523 -59 0
526 -523 59 0
-526 523 59 0
-526 -523 -59 0
527 62 -60 0
527 -62 60 0
-527 62 60 0
-527 -62 -60 0
-528 523 0
-528 60 0
-528 59 -62 0
-528 -59 62 0
528 -523 59 62 -60 0
528 -523 -59 -62 -60 0
529 526 -57 0
529 -526 57 0
-529 526 57 0
-529 -526 -57 0
530 60 -58 0
530 -60 58 0
-530 60 58 0
-530 -60 -58 0
-531 526 0
-531 58 0
-531 57 -60 0
-531 -57 60 0
531 -526 57 60 -58 0
531 -526 -57 -60 -58 0
532 529 -55 0
532 -529 55 0
-532 529 55 0
-532 -529 -55 0
533 58 -56 0
533 -58 56 0
-533 58 56 0
-533 -58 -56 0
-534 529 0
-534 56 0
-534 55 -58 0
-534 -55 58 0
534 -529 55 58 -56 0
534 -529 -55 -58 -56 0
535 532 -53 0
535 -532 53 0
-535 532 53 0
-535 -532 -53 0
536 56 -54 0
536 -56 54 0
-536 56 54 0
-536 -56 -54 0
-537 532 0
-537 54 0
-537 53 -56 0
-537 -53 56 0
537 -532 53 56 -54 0
537 -532 -53 -56 -54 0
538 535 -51 0
538 -535 51 0
-538 535 51 0
-538 -535 -51 0
539 54 -52 0
539 -54 52 0
-539 54 52 0
-539 -54 -52 0
-540 535 0
-540 52 0
-540 51 -54 0
-540 -51 54 0
540 -535 51 54 -52 0
540 -535 -51 -54 -52 0
541 538 -49 0
541 -538 49 0
-541 538 49 0
-541 -538 -49 0
542 52 -50 0
542 -52 50 0
-542 52 50 0
-542 -52 -50 0
-543 538 0
-543 50 0
-543 49 -52 0
-543 -49 52 0
543 -538 49 52 -50 0
543 -538 -49 -52 -50 0
544 541 -47 0
544 -541 47 0
-544 541 47 0
-544 -541 -47 0
545 50 -48 0
545 -50 48 0
-545 50 48 0
-545 -50 -48 0
-546 541 0
-546 48 0
-546 47 -50 0
-546 -47 50 0
546 -541 47 50 -48 0
546 -541 -47 -50 -48 0
547 544 -45 0
547 -544 45 0
-547 544 45 0
-547 -544 -45 0
548 48 -46 0
548 -48 46 0
-548 48 46 0
-548 -48 -46 0
-549 544 0
-549 46 0
-549 45 -48 0
-549 -45 48 0
549 -544 45 48 -46 0
549 -544 -45 -48 -46 0
550 547 -43 0
550 -547 43 0
-550 547 43 0
-550 -547 -43 0
551 46 -44 0
551 -46 44 0
-551 46 44 0
-551 -46 -44 0
-552 547 0
-552 44 0
-552 43 -46 0
-552 -43 46 0
552 -547 43 46 -44 0
552 -547 -43 -46 -44 0
553 550 -41 0
553 -550 41 0
-553 550 41 0
-553 -550 -41 0
554 44 -42 0
554 -44 42 0
-554 44 42 0
-554 -44 -42 0
-555 550 0
-555 42 0
-555 41 -44 0
-555 -41 44 0
555 -550 41 44 -42 0
555 -550 -41 -44 -42 0
556 553 -39 0
556 -553 39 0
-556 553 39 0
-556 -553 -39 0
557 42 -40 0
557 -42 40 0
-557 42 40 0
-557 -42 -40 0
-558 553 0
-558 40 0
-558 39 -42 0
-558 -39 42 0
558 -553 39 42 -40 0
558 -553 -39 -42 -40 0
559 556 -37 0
559 -556 37 0
-559 556 37 0
-559 -556 -37 0
560 40 -38 0
560 -40 38 0
-560 40 38 0
-560 -40 -38 0
-561 556 0
-561 38 0
-561 37 -40 0
-561 -37 40 0
561 -556 37 40 -38 0
561 -556 -37 -40 -38 0
562 559 -35 0
562 -559 35 0
-562 559 35 0
-562 -559 -35 0
563 38 -36 0
563 -38 36 0
-563 38 36 0
-563 -38 -36 0
-564 559 0
-564 36 0
-564 35 -38 0
-564 -35 38 0
564 -559 35 38 -36 0
564 -559 -35 -38 -36 0
565 562 -33 0
565 -562 33 0
-565 562 33 0
-565 -562 -33 0
566 36 -34 0
566 -36 34 0
-566 36 34 0
-566 -36 -34 0
-567 562 0
-567 34 0
-567 33 -36 0
-567 -33 36 0
567 -562 33 36 -34 0
567 -562 -33 -36 -34 0
568 565 -31 0
568 -565 31 0
-568 565 31 0
-568 -565 -31 0
569 34 -32 0
569 -34 32 0
-569 34 32 0
-569 -34 -32 0
-570 565 0
-570 32 0
-570 31 -34 0
-570 -31 34 0
570 -565 31 34 -32 0
570 -565 -31 -34 -32 0
571 568 -29 0
571 -568 29 0
-571 568 29 0
-571 -568 -29 0
572 32 -30 0
572 -32 30 0
-572 32 30 0
-572 -32 -30 0
-573 568 0
-573 30 0
-573 29 -32 0
-573 -29 32 0
573 -568 29 32 -30 0
573 -568 -29 -32 -30 0
574 571 -27 0
574 -571 27 0
-574 571 27 0
-574 -571 -27 0
575 30 -28 0
575 -30 28 0
-575 30 28 0
-575 -30 -28 0
-576 571 0
-576 28 0
-576 27 -30 0
-576 -27 30 0
576 -571 27 30 -28 0
576 -571 -27 -30 -28 0
577 574 -25 0
577 -574 25 0
-577 574 25 0
-577 -574 -25 0
578 28 -26 0
578 -28 26 0
-578 28 26 0
-578 -28 -26 0
-579 574 0
-579 26 0
-579 25 -28 0
-579 -25 28 0
579 -574 25 28 -26 0
579 -574 -25 -28 -26 0
580 577 -23 0
580 -577 23 0
-580 577 23 0
-580 -577 -23 0
581 26 -24 0
581 -26 24 0
-581 26 24 0
-581 -26 -24 0
-582 577 0
-582 24 0
-582 23 -26 0
-582 -23 26 0
582 -577 23 26 -24 0
582 -577 -23 -26 -24 0
583 580 -21 0
583 -580 21 0
-583 580 21 0
-583 -580 -21 0
584 24 -22 0
584 -24 22 0
-584 24 22 0
-584 -24 -22 0
-585 580 0
-585 22 0
-585 21 -24 0
-585 -21 24 0
585 -580 21 24 -22 0
585 -580 -21 -24 -22 0
586 583 -19 0
586 -583 19 0
-586 583 19 0
-586 -583 -19 0
587 22 -20 0
587 -22 20 0
-587 22 20 0
-587 -22 -20 0
-588 583 0
-588 20 0
-588 19 -22 0
-588 -19 22 0
588 -583 19 22 -20 0
588 -583 -19 -22 -20 0
589 586 -17 0
589 -586 17 0
-589 586 17 0
-589 -586 -17 0
590 20 -18 0
590 -20 18 0
-590 20 18 0
-590 -20 -18 0
-591 586 0
-591 18 0
-591 17 -20 0
-591 -17 20 0
591 -586 17 20 -18 0
591 -586 -17 -20 -18 0
592 589 -15 0
592 -589 15 0
-592 589 15 0
-592 -589 -15 0
593 18 -16 0
593 -18 16 0
-593 18 16 0
-593 -18 -16 0
-594 589 0
-594 16 0
-594 15 -18 0
-594 -15 18 0
594 -589 15 18 -16 0
594 -589 -15 -18 -16 0
595 592 -13 0
595 -592 13 0
-595 592 13 0
-595 -592 -13 0
596 16 -14 0
596 -16 14 0
-596 16 14 0
-596 -16 -14 0
-597 592 0
-597 14 0
-597 13 -16 0
-597 -13 16 0
597 -592 13 16 -14 0
597 -592 -13 -16 -14 0
598 595 -11 0
598 -595 11 0
-598 595 11 0
-598 -595 -11 0
599 14 -12 0
599 -14 12 0
-599 14 12 0
-599 -14 -12 0
-600 595 0
-600 12 0
-600 11 -14 0
-600 -11 14 0
600 -595 11 14 -12 0
600 -595 -11 -14 -12 0
601 598 -9 0
601 -598 9 0
-601 598 9 0
-601 -598 -9 0
602 12 -10 0
602 -12 10 0
-602 12 10 0
-602 -12 -10 0
-603 598 0
-603 10 0
-603 9 -12 0
-603 -9 12 0
603 -598 9 12 -10 0
603 -598 -9 -12 -10 0
604 601 -7 0
604 -601 7 0
-604 601 7 0
-604 -601 -7 0
605 10 -8 0
605 -10 8 0
-605 10 8 0
-605 -10 -8 0
-606 601 0
-606 8 0
-606 7 -10 0
-606 -7 10 0
606 -601 7 10 -8 0
606 -601 -7 -10 -8 0
607 604 -5 0
607 -604 5 0
-607 604 5 0
-607 -604 -5 0
608 8 -6 0
608 -8 6 0
-608 8 6 0
-608 -8 -6 0
-609 604 0
-609 6 0
-609 5 -8 0
-609 -5 8 0
609 -604 5 8 -6 0
609 -604 -5 -8 -6 0
610 607 -3 0
610 -607 3 0
-610 607 3 0
-610 -607 -3 0
611 6 -4 0
611 -6 4 0
-611 6 4 0
-611 -6 -4 0
-612 607 0
-612 4 0
-612 3 -6 0
-612 -3 6 0
612 -607 3 6 -4 0
612 -607 -3 -6 -4 0
613 610 -1 0
613 -610 1 0
-613 610 1 0
-613 -610 -1 0
614 4 -2 0
614 -4 2 0
-614 4 2 0
-614 -4 -2 0
-615 610 0
-615 2 0
-615 1 -4 0
-615 -1 4 0
615 -610 1 4 -2 0
615 -610 -1 -4 -2 0
-613 0
-610 0
-614 0
-607 0
-611 0
-604 0
-608 0
-601 0
-605 0
-598 0
-602 0
-595 0
-599 0
-592 0
-596 0
-589 0
-593 0
-586 0
-590 0
-583 0
-587 0
-580 0
-584 0
-577 0
-581 0
-574 0
-578 0
-571 0
-575 0
-568 0
-572 0
-565 0
-569 0
-562 0
-566 0
-559 0
-563 0
-556 0
-560 0
-553 0
-557 0
-550 0
-554 0
-547 0
-551 0
-544 0
-548 0
-541 0
-545 0
-538 0
-542 0
-535 0
-539 0
-532 0
-536 0
-529 0
-533 0
-526 0
-530 0
-523 0
-527 0
-520 0
-524 0
-517 0
-521 0
-514 0
-518 0
-511 0
-515 0
-508 0
-512 0
-505 0
-509 0
-502 0
-506 0
-499 0
-503 0
-496 0
-500 0
-493 0
-497 0
-490 0
-494 0
-487 0
-491 0
-484 0
-488 0
-481 0
-485 0
-478 0
-482 0
-475 0
-479 0
-472 0
-476 0
-469 0
-473 0
-466 0
-470 0
-463 0
-467 0
-460 0
-464 0
-457 0
-461 0
-454 0
-458 0
-451 0
-455 0
-448 0
-452 0
-445 0
-449 0
-442 0
-446 0
-439 0
-443 0
-436 0
-440 0
-433 0
-437 0
-430 0
-434 0
-427 0
-431 0
-424 0
-428 0
-421 0
-425 0
-418 0
-422 0
-415 0
-419 0
-412 0
-416 0
-409 0
-413 0
-406 0
-410 0
-403 0
-407 0
-400 0
-404 0
-397 0
-401 0
-394 0
-398 0
-391 0
-395 0
-388 0
-392 0
-385 0
-389 0
-382 0
-386 0
-379 0
-383 0
-376 0
-380 0
-373 0
-377 0
-370 0
-374 0
-367 0
-371 0
-364 0
-368 0
-361 0
-365 0
-358 0
-362 0
-355 0
-359 0
-352 0
-356 0
-349 0
-353 0
-346 0
-350 0
-343 0
-347 0
-340 0
-344 0
-337 0
-341 0
-334 0
-338 0
-331 0
-335 0
-328 0
-332 0
-325 0
-329 0
-322 0
-326 0
-319 0
-323 0
-316 0
-320 0
-313 0
-317 0
-310 0
-314 0
-307 0
-311 0
-304 0
-308 0
-301 0
-305 0
-298 0
-302 0
-295 0
-299 0
-292 0
-296 0
-289 0
-293 0
-286 0
-290 0
-283 0
-287 0
-280 0
-284 0
-277 0
-281 0
-274 0
-278 0
-271 0
-275 0
-268 0
-272 0
-265 0
-269 0
-262 0
-266 0
-259 0
-263 0
-256 0
-260 0
-253 0
-257 0
-247 0
-254 0
